p edge 612
e 0 1
e 0 3
e 0 4
e 0 5
e 0 6
e 0 181
e 0 540
e 1 5
e 1 6
e 1 7
e 1 540
e 2 3
e 2 4
e 2 7
e 2 33
e 2 36
e 3 4
e 3 5
e 3 7
e 4 32
e 4 33
e 4 181
e 4 187
e 5 6
e 5 7
e 7 15
e 7 35
e 7 36
e 7 325
e 7 540
e 8 27
e 8 137
e 8 182
e 8 544
e 9 11
e 9 17
e 9 26
e 9 138
e 9 539
e 10 15
e 10 18
e 10 34
e 10 35
e 10 138
e 10 182
e 10 471
e 10 538
e 10 541
e 10 546
e 11 12
e 11 17
e 11 29
e 11 30
e 11 38
e 11 138
e 11 181
e 11 185
e 11 540
e 11 541
e 12 30
e 12 541
e 13 18
e 13 19
e 13 21
e 13 34
e 13 544
e 14 32
e 14 33
e 14 36
e 14 37
e 14 186
e 14 543
e 14 553
e 15 16
e 15 35
e 15 324
e 15 325
e 15 538
e 16 324
e 16 538
e 17 26
e 17 185
e 18 19
e 18 31
e 18 34
e 18 35
e 19 20
e 19 132
e 19 134
e 19 188
e 20 21
e 20 22
e 20 28
e 20 134
e 20 545
e 21 544
e 22 28
e 22 135
e 22 545
e 23 104
e 23 316
e 23 331
e 23 407
e 23 456
e 23 598
e 24 104
e 24 485
e 24 598
e 24 599
e 25 104
e 25 477
e 25 479
e 26 185
e 27 30
e 27 137
e 27 181
e 27 182
e 28 135
e 28 136
e 28 137
e 28 544
e 29 38
e 29 197
e 29 203
e 29 540
e 30 181
e 30 182
e 30 541
e 31 35
e 31 36
e 31 188
e 31 542
e 32 33
e 32 186
e 32 187
e 33 36
e 34 544
e 35 36
e 36 37
e 36 542
e 38 197
e 38 203
e 39 40
e 39 118
e 39 126
e 39 407
e 39 408
e 39 493
e 40 41
e 40 318
e 40 407
e 41 119
e 41 126
e 41 314
e 41 318
e 41 611
e 42 120
e 42 164
e 42 314
e 42 412
e 42 481
e 42 491
e 43 44
e 43 45
e 43 46
e 43 336
e 44 46
e 44 149
e 44 350
e 44 503
e 45 46
e 45 149
e 45 295
e 45 336
e 46 149
e 46 371
e 47 48
e 47 452
e 47 453
e 48 104
e 48 316
e 48 324
e 48 331
e 48 452
e 49 98
e 49 101
e 49 190
e 49 469
e 50 98
e 50 101
e 50 189
e 50 190
e 50 469
e 51 358
e 51 460
e 51 462
e 51 466
e 51 501
e 52 58
e 52 64
e 52 220
e 52 400
e 52 435
e 52 488
e 52 533
e 53 56
e 53 62
e 53 270
e 53 279
e 53 291
e 54 57
e 54 95
e 54 195
e 54 434
e 55 270
e 55 279
e 55 280
e 55 281
e 55 282
e 55 547
e 56 62
e 56 222
e 56 291
e 56 297
e 57 95
e 57 429
e 57 434
e 58 64
e 58 72
e 58 364
e 58 395
e 58 396
e 58 397
e 58 399
e 58 402
e 58 488
e 59 60
e 59 83
e 59 84
e 59 206
e 59 211
e 59 277
e 59 278
e 59 530
e 60 84
e 60 277
e 61 67
e 61 258
e 61 275
e 61 276
e 62 71
e 62 279
e 62 297
e 63 76
e 63 258
e 63 262
e 63 263
e 63 275
e 63 531
e 64 70
e 64 72
e 64 86
e 64 533
e 65 69
e 65 94
e 65 279
e 65 430
e 65 532
e 66 71
e 66 260
e 66 297
e 66 433
e 66 532
e 67 275
e 67 276
e 67 530
e 68 81
e 68 207
e 68 210
e 68 284
e 68 289
e 69 71
e 69 279
e 70 72
e 70 82
e 70 86
e 70 335
e 70 434
e 70 504
e 70 533
e 71 279
e 71 532
e 72 73
e 72 93
e 72 114
e 72 217
e 72 259
e 72 393
e 72 402
e 72 407
e 72 456
e 72 481
e 72 598
e 74 75
e 74 250
e 74 272
e 74 290
e 75 250
e 75 272
e 76 263
e 76 275
e 76 530
e 76 534
e 77 79
e 77 80
e 77 263
e 77 530
e 77 534
e 78 92
e 78 96
e 78 225
e 78 283
e 78 432
e 79 80
e 79 262
e 79 263
e 79 264
e 80 264
e 80 274
e 80 401
e 80 529
e 81 284
e 81 289
e 81 482
e 82 434
e 82 435
e 83 84
e 83 211
e 83 257
e 83 267
e 83 268
e 84 87
e 84 267
e 85 219
e 85 221
e 85 251
e 85 290
e 85 605
e 86 533
e 87 88
e 87 89
e 87 257
e 87 267
e 87 277
e 88 89
e 88 258
e 88 261
e 89 258
e 89 276
e 90 91
e 90 274
e 90 401
e 90 530
e 91 96
e 91 224
e 91 265
e 91 274
e 91 529
e 91 530
e 92 96
e 92 216
e 92 227
e 92 482
e 94 393
e 94 427
e 94 436
e 94 532
e 95 116
e 95 367
e 95 429
e 95 468
e 95 521
e 96 213
e 96 224
e 96 225
e 96 228
e 96 232
e 96 246
e 96 265
e 96 475
e 96 482
e 96 502
e 97 99
e 97 176
e 97 191
e 97 322
e 97 326
e 97 338
e 97 442
e 97 469
e 97 470
e 97 555
e 98 101
e 98 190
e 99 100
e 99 443
e 99 447
e 99 469
e 100 469
e 101 469
e 102 103
e 102 325
e 103 324
e 103 325
e 104 331
e 104 477
e 104 479
e 104 485
e 104 558
e 104 565
e 104 598
e 104 599
e 104 600
e 105 112
e 105 502
e 105 503
e 105 505
e 106 107
e 106 108
e 106 109
e 106 365
e 106 366
e 107 109
e 107 358
e 107 365
e 107 461
e 108 109
e 108 352
e 108 515
e 109 515
e 109 554
e 110 111
e 110 353
e 110 354
e 110 358
e 110 460
e 110 467
e 111 354
e 111 460
e 112 341
e 112 350
e 112 502
e 112 503
e 113 116
e 113 367
e 113 372
e 113 373
e 113 502
e 113 503
e 113 506
e 113 507
e 113 510
e 113 519
e 114 292
e 114 300
e 114 335
e 114 336
e 114 337
e 114 478
e 114 508
e 114 598
e 115 336
e 115 503
e 116 367
e 116 468
e 116 482
e 116 502
e 117 370
e 117 507
e 117 518
e 118 407
e 118 454
e 118 493
e 119 126
e 119 314
e 119 408
e 119 409
e 119 410
e 119 411
e 120 314
e 120 410
e 120 411
e 120 412
e 121 123
e 121 124
e 121 125
e 121 172
e 121 173
e 122 141
e 122 171
e 122 175
e 122 341
e 122 347
e 122 457
e 122 611
e 123 125
e 123 171
e 123 173
e 124 125
e 124 171
e 124 172
e 124 175
e 125 171
e 126 408
e 127 362
e 127 363
e 127 595
e 127 596
e 128 129
e 128 130
e 128 362
e 128 525
e 128 607
e 128 608
e 128 610
e 129 130
e 129 323
e 129 362
e 129 527
e 130 223
e 130 322
e 130 323
e 130 522
e 130 523
e 130 525
e 130 526
e 130 527
e 131 148
e 131 378
e 131 383
e 131 414
e 131 423
e 131 425
e 132 133
e 132 134
e 132 188
e 132 553
e 133 134
e 133 543
e 133 545
e 133 553
e 134 545
e 135 136
e 135 186
e 135 543
e 135 545
e 136 137
e 136 187
e 137 181
e 138 539
e 138 541
e 138 546
e 139 183
e 139 184
e 139 546
e 140 141
e 140 224
e 140 314
e 140 346
e 140 347
e 140 475
e 141 314
e 141 347
e 141 611
e 142 150
e 142 154
e 142 376
e 142 377
e 142 378
e 142 383
e 143 477
e 143 558
e 143 560
e 143 561
e 143 562
e 143 569
e 143 593
e 144 145
e 144 567
e 144 573
e 144 592
e 144 594
e 145 567
e 145 577
e 145 578
e 145 594
e 146 147
e 146 479
e 147 479
e 148 156
e 148 379
e 148 380
e 148 383
e 148 425
e 149 161
e 149 295
e 149 340
e 149 350
e 149 371
e 150 154
e 150 378
e 150 382
e 150 420
e 151 154
e 151 174
e 151 175
e 151 341
e 151 382
e 151 415
e 151 417
e 151 421
e 152 157
e 152 158
e 152 351
e 152 377
e 152 379
e 153 160
e 153 161
e 153 169
e 153 294
e 153 296
e 153 421
e 153 556
e 154 351
e 154 376
e 154 382
e 154 417
e 155 162
e 155 341
e 155 342
e 155 343
e 155 350
e 155 381
e 156 157
e 156 159
e 156 360
e 156 379
e 156 380
e 156 416
e 156 418
e 157 158
e 157 159
e 157 193
e 157 194
e 157 379
e 158 194
e 158 351
e 159 193
e 159 422
e 160 161
e 160 349
e 160 413
e 160 421
e 161 295
e 161 340
e 161 349
e 161 556
e 162 343
e 163 164
e 163 412
e 163 455
e 163 493
e 163 601
e 164 412
e 164 481
e 164 491
e 164 601
e 165 166
e 165 442
e 165 446
e 166 442
e 166 446
e 167 170
e 167 322
e 167 323
e 167 375
e 168 169
e 168 171
e 168 173
e 168 363
e 168 595
e 169 172
e 169 173
e 169 296
e 169 304
e 169 404
e 169 421
e 169 595
e 170 322
e 170 323
e 170 375
e 171 173
e 171 175
e 171 302
e 171 362
e 171 363
e 171 457
e 172 173
e 172 174
e 172 175
e 172 421
e 174 175
e 176 338
e 177 535
e 177 536
e 177 537
e 177 538
e 178 180
e 178 333
e 178 334
e 178 494
e 178 588
e 179 495
e 179 557
e 179 588
e 180 327
e 180 329
e 180 333
e 180 494
e 180 495
e 181 187
e 181 540
e 182 541
e 182 544
e 183 184
e 183 546
e 184 546
e 186 187
e 188 542
e 188 553
e 189 190
e 189 339
e 189 374
e 189 469
e 189 470
e 190 339
e 190 459
e 190 469
e 191 338
e 192 323
e 192 326
e 192 362
e 192 457
e 192 548
e 192 588
e 193 194
e 193 343
e 193 422
e 193 426
e 194 343
e 194 351
e 194 417
e 195 370
e 195 518
e 195 520
e 195 521
e 196 335
e 196 509
e 196 517
e 197 203
e 197 384
e 197 386
e 197 447
e 197 540
e 197 588
e 197 591
e 198 199
e 198 200
e 198 321
e 198 325
e 198 385
e 198 386
e 198 540
e 198 548
e 199 321
e 199 385
e 199 591
e 200 201
e 200 204
e 200 384
e 200 385
e 200 386
e 200 388
e 200 389
e 200 458
e 200 490
e 200 590
e 201 202
e 201 204
e 201 384
e 202 204
e 204 384
e 204 387
e 204 388
e 205 587
e 206 208
e 206 222
e 206 278
e 206 291
e 206 392
e 206 481
e 206 484
e 206 486
e 206 530
e 207 210
e 207 226
e 207 285
e 208 217
e 208 484
e 208 486
e 209 396
e 209 397
e 209 399
e 210 216
e 210 226
e 210 289
e 211 268
e 211 269
e 211 278
e 211 291
e 212 235
e 212 246
e 212 247
e 212 249
e 213 228
e 213 346
e 213 348
e 213 475
e 214 255
e 214 256
e 214 257
e 214 261
e 214 262
e 215 230
e 215 233
e 215 234
e 215 242
e 216 227
e 216 289
e 216 482
e 217 259
e 217 391
e 217 480
e 217 481
e 217 484
e 217 486
e 217 528
e 218 229
e 218 239
e 218 241
e 218 552
e 219 236
e 219 237
e 219 238
e 219 251
e 219 271
e 220 400
e 220 429
e 220 488
e 221 284
e 221 285
e 221 288
e 221 290
e 221 468
e 221 482
e 221 605
e 222 297
e 222 392
e 222 483
e 223 523
e 223 607
e 223 609
e 224 314
e 224 475
e 224 481
e 224 530
e 225 231
e 225 232
e 225 551
e 226 227
e 226 273
e 226 285
e 226 286
e 226 287
e 226 476
e 227 432
e 227 476
e 228 348
e 228 502
e 229 230
e 229 283
e 229 551
e 230 231
e 230 241
e 231 233
e 231 551
e 232 233
e 232 235
e 232 246
e 233 235
e 234 235
e 234 242
e 234 247
e 235 246
e 236 237
e 236 271
e 236 282
e 236 398
e 236 547
e 237 238
e 237 281
e 237 282
e 238 252
e 238 253
e 238 256
e 238 257
e 238 281
e 238 290
e 239 240
e 239 250
e 239 272
e 240 241
e 240 243
e 240 254
e 241 242
e 242 243
e 242 244
e 243 245
e 243 255
e 244 245
e 244 247
e 244 248
e 244 262
e 244 264
e 245 255
e 245 262
e 246 249
e 246 265
e 247 248
e 248 249
e 248 264
e 249 264
e 249 266
e 250 252
e 250 254
e 251 271
e 251 468
e 251 605
e 252 253
e 252 290
e 253 254
e 253 256
e 254 255
e 255 256
e 257 261
e 257 267
e 257 268
e 258 261
e 258 531
e 259 393
e 259 394
e 259 480
e 260 428
e 260 433
e 260 528
e 261 262
e 262 263
e 262 531
e 263 534
e 264 266
e 264 529
e 265 266
e 265 529
e 266 529
e 268 269
e 268 280
e 268 281
e 269 270
e 269 280
e 269 291
e 270 280
e 270 291
e 271 468
e 271 487
e 272 273
e 272 286
e 272 288
e 272 290
e 272 552
e 273 287
e 273 552
e 274 401
e 274 529
e 275 530
e 276 277
e 276 530
e 277 530
e 279 398
e 279 430
e 280 281
e 281 282
e 282 547
e 283 287
e 283 432
e 283 551
e 283 552
e 284 285
e 284 482
e 285 286
e 285 288
e 286 288
e 287 432
e 287 476
e 288 290
e 289 482
e 292 298
e 292 300
e 292 554
e 293 294
e 293 295
e 293 299
e 293 556
e 294 296
e 294 299
e 294 301
e 294 304
e 294 312
e 294 473
e 295 299
e 295 336
e 295 556
e 296 304
e 297 391
e 297 433
e 298 299
e 298 300
e 298 473
e 299 300
e 299 301
e 299 312
e 299 336
e 299 473
e 300 336
e 301 312
e 302 303
e 302 362
e 303 362
e 304 404
e 304 405
e 304 473
e 304 474
e 305 306
e 305 307
e 305 473
e 305 595
e 306 307
e 306 403
e 306 473
e 307 403
e 307 404
e 307 405
e 307 406
e 307 595
e 308 310
e 308 311
e 308 450
e 308 451
e 308 452
e 309 310
e 309 311
e 309 451
e 310 311
e 310 449
e 310 450
e 310 451
e 310 453
e 311 451
e 313 384
e 313 386
e 314 315
e 314 411
e 314 481
e 314 611
e 316 317
e 316 318
e 316 320
e 316 324
e 316 325
e 316 331
e 316 407
e 317 318
e 317 319
e 317 320
e 318 325
e 318 548
e 318 611
e 319 320
e 321 548
e 321 550
e 321 581
e 321 583
e 321 584
e 321 588
e 321 591
e 322 323
e 322 326
e 322 375
e 323 326
e 323 362
e 324 325
e 324 448
e 324 452
e 324 538
e 325 540
e 325 548
e 326 328
e 326 329
e 326 332
e 326 555
e 326 588
e 326 589
e 327 329
e 327 330
e 327 332
e 327 333
e 328 555
e 328 588
e 328 589
e 329 332
e 329 495
e 329 557
e 329 588
e 330 332
e 330 333
e 330 588
e 330 589
e 332 589
e 333 588
e 334 494
e 334 495
e 334 588
e 335 369
e 335 504
e 335 508
e 335 509
e 335 517
e 335 580
e 336 503
e 336 508
e 337 478
e 337 511
e 337 554
e 339 374
e 339 459
e 340 349
e 340 350
e 340 381
e 340 414
e 340 425
e 341 342
e 341 347
e 341 350
e 341 415
e 341 502
e 342 343
e 342 361
e 342 415
e 343 345
e 343 361
e 343 417
e 343 426
e 344 359
e 344 360
e 344 380
e 344 381
e 344 416
e 344 418
e 344 424
e 345 381
e 345 419
e 345 426
e 346 347
e 346 348
e 346 475
e 347 348
e 347 502
e 348 502
e 349 413
e 349 414
e 349 423
e 350 381
e 350 503
e 351 376
e 351 417
e 352 356
e 352 366
e 352 497
e 352 511
e 353 358
e 353 460
e 353 496
e 355 356
e 355 357
e 355 499
e 355 511
e 355 513
e 356 357
e 356 497
e 356 499
e 356 511
e 357 511
e 358 461
e 358 462
e 358 464
e 358 496
e 358 501
e 359 381
e 359 424
e 360 416
e 360 419
e 360 422
e 360 424
e 361 415
e 362 363
e 362 457
e 363 595
e 364 397
e 364 402
e 364 430
e 364 431
e 365 366
e 365 461
e 365 497
e 366 497
e 367 507
e 367 518
e 367 521
e 368 369
e 368 370
e 368 507
e 368 509
e 368 520
e 369 504
e 369 580
e 370 507
e 370 518
e 370 520
e 372 373
e 372 502
e 373 502
e 373 503
e 373 505
e 374 390
e 374 459
e 374 470
e 376 377
e 377 379
e 377 383
e 378 383
e 378 420
e 378 423
e 379 383
e 380 381
e 380 418
e 380 425
e 381 419
e 381 424
e 382 413
e 382 420
e 382 421
e 384 385
e 384 386
e 384 387
e 384 489
e 384 490
e 384 591
e 385 490
e 385 591
e 386 540
e 387 388
e 387 489
e 388 389
e 388 458
e 388 489
e 389 458
e 390 459
e 390 469
e 390 470
e 391 433
e 391 483
e 391 486
e 391 528
e 392 483
e 392 486
e 393 394
e 393 402
e 393 427
e 394 427
e 394 428
e 394 480
e 395 399
e 395 488
e 396 397
e 396 399
e 397 398
e 397 399
e 397 431
e 397 487
e 398 430
e 398 431
e 398 487
e 398 547
e 399 487
e 399 488
e 400 429
e 400 434
e 400 435
e 401 530
e 402 436
e 403 405
e 403 473
e 404 405
e 404 406
e 404 595
e 405 406
e 405 473
e 407 454
e 407 456
e 407 492
e 407 601
e 408 409
e 408 412
e 408 493
e 409 410
e 409 412
e 410 411
e 410 412
e 412 491
e 413 420
e 413 421
e 414 423
e 414 425
e 415 417
e 416 418
e 419 424
e 419 426
e 420 423
e 422 426
e 427 428
e 427 532
e 428 528
e 428 532
e 429 468
e 429 487
e 430 431
e 430 436
e 432 476
e 433 528
e 434 520
e 435 533
e 437 438
e 437 440
e 437 441
e 437 444
e 437 445
e 437 447
e 438 441
e 438 444
e 439 440
e 439 441
e 439 444
e 439 445
e 440 444
e 440 445
e 440 447
e 441 444
e 441 445
e 442 445
e 442 446
e 442 447
e 442 555
e 442 588
e 443 447
e 445 447
e 447 588
e 448 449
e 448 450
e 448 452
e 448 538
e 449 450
e 449 453
e 449 538
e 449 587
e 450 452
e 451 452
e 451 453
e 452 453
e 453 587
e 454 455
e 454 493
e 454 601
e 454 602
e 455 493
e 455 601
e 455 603
e 456 598
e 457 548
e 457 611
e 458 489
e 458 490
e 458 590
e 459 469
e 460 467
e 460 496
e 460 501
e 460 511
e 460 512
e 461 464
e 461 465
e 461 497
e 461 499
e 461 514
e 462 463
e 462 464
e 462 466
e 462 606
e 463 464
e 463 498
e 463 606
e 464 465
e 464 498
e 464 514
e 465 498
e 465 499
e 465 500
e 465 513
e 465 514
e 466 500
e 466 511
e 466 513
e 466 606
e 467 512
e 468 482
e 468 605
e 469 470
e 471 472
e 471 535
e 471 536
e 471 538
e 471 546
e 472 536
e 472 537
e 472 538
e 477 479
e 477 560
e 477 562
e 477 565
e 477 566
e 477 575
e 478 511
e 478 558
e 478 593
e 478 598
e 479 559
e 479 566
e 480 528
e 481 484
e 481 530
e 481 601
e 482 502
e 483 486
e 485 599
e 487 488
e 489 490
e 490 590
e 493 603
e 494 495
e 495 557
e 496 501
e 497 499
e 498 500
e 499 513
e 500 513
e 500 606
e 502 505
e 503 505
e 503 508
e 503 516
e 503 519
e 504 520
e 504 580
e 506 507
e 506 509
e 506 510
e 507 509
e 507 518
e 508 509
e 508 516
e 508 517
e 509 510
e 509 516
e 509 517
e 510 516
e 510 519
e 511 512
e 511 513
e 511 515
e 511 554
e 511 569
e 511 593
e 512 568
e 512 579
e 515 554
e 516 519
e 518 521
e 522 523
e 522 524
e 522 525
e 522 526
e 522 609
e 523 526
e 523 609
e 524 525
e 524 609
e 525 610
e 530 534
e 535 536
e 535 538
e 536 537
e 537 538
e 538 587
e 539 546
e 542 553
e 543 545
e 543 553
e 548 549
e 548 583
e 548 588
e 548 611
e 549 581
e 549 582
e 549 583
e 549 588
e 550 581
e 550 584
e 550 585
e 555 588
e 557 588
e 558 562
e 558 565
e 558 598
e 559 564
e 559 566
e 560 561
e 560 575
e 561 569
e 561 570
e 561 575
e 561 578
e 561 594
e 562 565
e 563 576
e 563 579
e 564 566
e 564 567
e 564 575
e 564 577
e 566 575
e 567 573
e 567 575
e 567 577
e 568 569
e 568 576
e 568 578
e 568 579
e 569 578
e 569 593
e 570 571
e 570 575
e 570 594
e 571 574
e 571 575
e 571 594
e 572 573
e 572 574
e 572 592
e 572 594
e 573 574
e 573 575
e 573 592
e 574 575
e 574 594
e 576 577
e 576 578
e 576 579
e 577 578
e 578 594
e 581 582
e 581 585
e 581 588
e 582 583
e 582 584
e 582 585
e 582 586
e 583 584
e 584 585
e 584 586
e 585 586
e 588 589
e 588 591
e 592 594
e 595 596
e 595 597
e 596 597
e 599 600
e 601 602
e 601 604
e 607 608
e 607 610
e 608 610
e 609 610
c k 3
